<number of tasks>
50

<cycle time>
1000

<order strength>
0.896


<task times>
1 151
2 483
3 120
4 172
5 107
6 45
7 502
8 57
9 357
10 251
11 73
12 40
13 362
14 288
15 51
16 163
17 237
18 103
19 45
20 188
21 531
22 227
23 112
24 78
25 511
26 31
27 55
28 84
29 117
30 38
31 166
32 255
33 178
34 211
35 75
36 211
37 112
38 205
39 177
40 294
41 206
42 269
43 165
44 59
45 29
46 238
47 524
48 448
49 232
50 166

<precedence relations>
1,4
1,5
1,6
2,4
2,5
2,6
3,4
3,5
3,6
4,7
5,7
6,7
7,8
7,9
7,10
7,11
8,12
8,13
8,14
8,15
9,12
9,13
9,14
9,15
10,12
10,13
10,14
10,15
11,12
11,13
11,14
11,15
12,16
12,17
12,18
12,19
13,16
13,17
13,18
13,19
14,16
14,17
14,18
14,19
15,16
15,17
15,18
15,19
16,20
16,21
16,22
17,20
17,21
17,22
18,20
18,21
18,22
19,20
19,21
19,22
20,23
20,24
20,25
21,23
21,26
21,27
22,23
22,25
23,31
24,33
24,34
24,35
25,26
25,27
26,28
26,29
26,37
26,38
27,30
27,31
28,40
29,40
30,33
31,32
32,33
32,34
32,35
33,38
34,37
35,36
35,37
35,38
36,39
37,39
37,40
38,39
38,40
39,41
39,47
40,41
40,42
41,43
41,44
41,46
42,45
42,46
44,49
45,47
46,48
49,50

<end>
